\* row_knapsack_problem *\
Minimize
knapsack: 272 row_1 + 269 row_10 + 279 row_11 + 277 row_12 + 268 row_13
 + 269 row_15 + 274 row_19 + 271 row_2 + 275 row_20 + 273 row_21 + 284 row_22
 + 282 row_23 + 267 row_25 + 275 row_26 + 262 row_27 + 256 row_28 + 256 row_3
 + 289 row_30 + 266 row_32 + 271 row_33 + 255 row_34 + 282 row_38 + 255 row_41
 + 267 row_43 + 261 row_44 + 272 row_45 + 267 row_46 + 267 row_47 + 267 row_48
 + 275 row_49 + 281 row_50 + 270 row_51 + 277 row_52 + 281 row_53 + 373 row_55
 + 275 row_56 + 380 row_57 + 291 row_59 + 257 row_6 + 270 row_60 + 380 row_63
 + 264 row_7 + 270 row_9
Subject To
sensitivity: 129 row_1 + 132 row_10 + 122 row_11 + 124 row_12 + 133 row_13
 + 132 row_15 + 127 row_19 + 130 row_2 + 126 row_20 + 128 row_21 + 117 row_22
 + 119 row_23 + 134 row_25 + 126 row_26 + 139 row_27 + 145 row_28 + 145 row_3
 + 112 row_30 + 135 row_32 + 130 row_33 + 146 row_34 + 119 row_38 + 146 row_41
 + 134 row_43 + 140 row_44 + 129 row_45 + 134 row_46 + 134 row_47 + 134 row_48
 + 126 row_49 + 120 row_50 + 131 row_51 + 124 row_52 + 120 row_53 + 28 row_55
 + 126 row_56 + 21 row_57 + 110 row_59 + 144 row_6 + 131 row_60 + 21 row_63
 + 137 row_7 + 131 row_9 >= 1031.1
Bounds
 row_1 <= 1
 row_10 <= 1
 row_11 <= 1
 row_12 <= 1
 row_13 <= 1
 row_15 <= 1
 row_19 <= 1
 row_2 <= 1
 row_20 <= 1
 row_21 <= 1
 row_22 <= 1
 row_23 <= 1
 row_25 <= 1
 row_26 <= 1
 row_27 <= 1
 row_28 <= 1
 row_3 <= 1
 row_30 <= 1
 row_32 <= 1
 row_33 <= 1
 row_34 <= 1
 row_38 <= 1
 row_41 <= 1
 row_43 <= 1
 row_44 <= 1
 row_45 <= 1
 row_46 <= 1
 row_47 <= 1
 row_48 <= 1
 row_49 <= 1
 row_50 <= 1
 row_51 <= 1
 row_52 <= 1
 row_53 <= 1
 row_55 <= 1
 row_56 <= 1
 row_57 <= 1
 row_59 <= 1
 row_6 <= 1
 row_60 <= 1
 row_63 <= 1
 row_7 <= 1
 row_9 <= 1
End
